instances/p1/p1_6_13-2.dzn
Alphabet = {A,C,G,T};
ns = 6;
nc = 13;
neighbours = [| I(C),I(A),I(C),I(C),I(G),I(A),I(A),I(A),I(A),I(C),I(A),I(C),I(A) | I(A),I(A),I(A),I(A),I(A),I(A),I(A),I(C),I(A),I(A),I(A),I(C),I(A) | I(C),I(A),I(C),I(A),I(C),I(A),I(A),I(A),I(A),I(A),I(A),I(A),I(A) | I(C),I(A),I(A),I(A),I(A),I(A),I(A),I(G),I(A),I(C),I(A),I(A),I(A) | I(A),I(A),I(G),I(C),I(A),I(G),I(A),I(C),I(A),I(A),I(A),I(C),I(A) | I(A),I(G),I(A),I(C),I(A),I(A),I(A),I(G),I(A),I(A),I(C),I(A),I(A) |];
