instances/p1/p1_6_13-2.txt
{
	"num_strings": 6,
	"alphabet": "ACGT",
	"strings": [
		"CACCGAAAACACA",
		"AAAAAAACAAACA",
		"CACACAAAAAAAA",
		"CAAAAAAGACAAA",
		"AAGCAGACAAACA",
		"AGACAAAGAACAA"
	],
	"str_length":[13,13,13,13,13,13]
}